proyfinal/src/viki/013/experimentInOfficeAgust.take6.output/754c1002-81f8-4f7d-bdd0-2224e9aa7647.als.dat
{'cnf.clauses': '118081',
 'cnf.totvars': '69608',
 'conflict literals': '861',
 'conflicts': '119',
 'decisions': '4242',
 'memused.mb': '16.24',
 'outcome': 'UNSAT',
 'propagations': '188320',
 'restarts': '2',
 'solver.msecs': 36,
 'task.msecs': 144}
