proyfinal/src/viki/013/experimentInOfficeAgust.take6.output/754c1002-81f8-4f7d-bdd0-2224e9aa7647.als.out
Reading from standard input... Use '--help' for help.
============================[ Problem Statistics ]=============================
|                                                                             |
|  Number of variables:         69608                                         |
|  Number of clauses:          118081                                         |
|  Parse time:                   0.02 s                                       |
|                                                                             |
============================[ Search Statistics ]==============================
| Conflicts |          ORIGINAL         |          LEARNT          | Progress |
|           |    Vars  Clauses Literals |    Limit  Clauses Lit/Cl |          |
===============================================================================
|       100 |   56272    80788   199890 |    29622       90      9 | 19.159 % |
===============================================================================
restarts              : 2
conflicts             : 119            (3241 /sec)
decisions             : 4242           (0.00 % random) (115526 /sec)
propagations          : 188320         (5128680 /sec)
conflict literals     : 861            (23.67 % deleted)
Memory used           : 16.24 MB
CPU time              : 0.036719 s

UNSATISFIABLE
